Problem:    evacuazione
Rows:       47
Columns:    20
Non-zeros:  110
Status:     OPTIMAL
Objective:  z = 85.27341635 (MINimum)

   No.   Row name   St   Activity     Lower bound   Upper bound    Marginal
------ ------------ -- ------------- ------------- ------------- -------------
     1 Capacity[1,1]
                    B        256.362                         400 
     2 Capacity[1,2]
                    B        240.011                         400 
     3 Capacity[1,3]
                    B              0                         400 
     4 Capacity[1,4]
                    B        306.362                         400 
     5 Capacity[1,5]
                    B        47.2658                         400 
     6 Capacity[1,6]
                    B              0                         400 
     7 Capacity[2,1]
                    B        243.638                         400 
     8 Capacity[2,2]
                    B        170.547                         400 
     9 Capacity[2,3]
                    B        189.496                         400 
    10 Capacity[2,4]
                    B        243.638                         400 
    11 Capacity[2,5]
                    B        189.496                         400 
    12 Capacity[2,6]
                    B        213.184                         400 
    13 Capacity[3,1]
                    B              0                         400 
    14 Capacity[3,2]
                    B        239.442                         400 
    15 Capacity[3,3]
                    B        189.496                         400 
    16 Capacity[3,4]
                    B              0                         400 
    17 Capacity[3,5]
                    B        284.245                         400 
    18 Capacity[3,6]
                    B        186.816                         400 
    19 Empty[1]     NS           850           850             =         < eps
    20 Empty[2]     NS          1250          1250             =     0.0682187 
    21 Empty[3]     NS           900           900             =         < eps
    22 Capienza[1]  NU           500                         500         < eps
    23 Capienza[2]  NU           650                         650         < eps
    24 Capienza[3]  B        378.993                         550 
    25 Capienza[4]  NU           550                         550         < eps
    26 Capienza[5]  B        521.007                         550 
    27 Capienza[6]  NU           400                         400         < eps
    28 TempoMax[1,1]
                    B        34.0011            -0               
    29 TempoMax[1,2]
                    B        1.26963            -0               
    30 TempoMax[1,3]
                    B        85.2734            -0               
    31 TempoMax[1,4]
                    B          8.683            -0               
    32 TempoMax[1,5]
                    B         73.457            -0               
    33 TempoMax[1,6]
                    B        85.2734            -0               
    34 TempoMax[2,1]
                    NL             0            -0                    0.194911 
    35 TempoMax[2,2]
                    NL             0            -0                    0.136437 
    36 TempoMax[2,3]
                    NL             0            -0                    0.151597 
    37 TempoMax[2,4]
                    NL             0            -0                    0.194911 
    38 TempoMax[2,5]
                    NL             0            -0                    0.151597 
    39 TempoMax[2,6]
                    NL             0            -0                    0.170547 
    40 TempoMax[3,1]
                    B        85.2734            -0               
    41 TempoMax[3,2]
                    B         1.4686            -0               
    42 TempoMax[3,3]
                    NL             0            -0                       < eps
    43 TempoMax[3,4]
                    B        85.2734            -0               
    44 TempoMax[3,5]
                    NL             0            -0                       < eps
    45 TempoMax[3,6]
                    B        10.5468            -0               
    46 DefCosti     NS             0            -0             =         < eps
    47 z            B        85.2734                             

   No. Column name  St   Activity     Lower bound   Upper bound    Marginal
------ ------------ -- ------------- ------------- ------------- -------------
     1 x[1,1]       B        256.362             0               
     2 x[1,2]       B        240.011             0               
     3 x[1,3]       NL             0             0                       < eps
     4 x[1,4]       B        306.362             0               
     5 x[1,5]       B        47.2658             0               
     6 x[1,6]       NL             0             0                       < eps
     7 x[2,1]       B        243.638             0               
     8 x[2,2]       B        170.547             0               
     9 x[2,3]       B        189.496             0               
    10 x[2,4]       B        243.638             0               
    11 x[2,5]       B        189.496             0               
    12 x[2,6]       B        213.184             0               
    13 x[3,1]       NL             0             0                       < eps
    14 x[3,2]       B        239.442             0               
    15 x[3,3]       B        189.496             0               
    16 x[3,4]       NL             0             0                       < eps
    17 x[3,5]       B        284.245             0               
    18 x[3,6]       B        186.816             0               
    19 tempo        B        85.2734                             
    20 costo        B    1.08493e+06                             

Karush-Kuhn-Tucker optimality conditions:

KKT.PE: max.abs.err = 2.42e-13 on row 36
        max.rel.err = 1.41e-15 on row 36
        High quality

KKT.PB: max.abs.err = 0.00e+00 on row 0
        max.rel.err = 0.00e+00 on row 0
        High quality

KKT.DE: max.abs.err = 1.67e-16 on column 10
        max.rel.err = 1.47e-16 on column 10
        High quality

KKT.DB: max.abs.err = 1.28e-16 on column 13
        max.rel.err = 1.28e-16 on column 13
        High quality

End of output
